(set-logic HORN)
(declare-fun state (Int (Array Int Int) (Array Int Int) (Array Int Int) (Array Int Int) Int Int (Array Int Int) (Array Int Int) Int Int Int Int Int Int Int Int Int Int Int Int Int Int Int Int Int Int Int Int Int Int Int Int Int Int Int Int Int Int Int Int Int Int Int Int Int Int Int Int Int Int Int Int Int Int Int Int Bool Bool Bool Bool Bool Bool Int Int (Array Int Int)) Bool)
(assert (forall ((|A_7| Int) (|B_7| (Array Int Int)) (|C_7| (Array Int Int)) (|D_7| (Array Int Int)) (|E_7| (Array Int Int)) (|F_7| Int) (|G_7| Int) (|H_7| (Array Int Int)) (|I_7| (Array Int Int)) (|J_7| Int) (|K_7| Int) (|L_7| Int) (|M_7| Int) (|N_7| Int) (|O_7| Int) (|G2_3| Int) (|Q_7| Int) (|R_7| Int) (|S_7| Int) (|T_7| Int) (|U_7| Int) (|V_7| Int) (|W_7| Int) (|X_7| Int) (|Y_7| Int) (|Z_7| Int) (|A1_7| Int) (|B1_7| Int) (|C1_7| Int) (|D1_7| Int) (|E1_7| Int) (|F1_7| Int) (|G1_7| Int) (|H1_7| Int) (|I1_7| Int) (|J1_7| Int) (|K1_7| Int) (|L1_7| Int) (|M1_7| Int) (|N1_7| Int) (|O1_7| Int) (|P1_7| Int) (|Q1_7| Int) (|R1_7| Int) (|S1_7| Int) (|T1_7| Int) (|U1_7| Int) (|V1_7| Int) (|W1_7| Int) (|X1_7| Int) (|Y1_7| Int) (|Z1_7| Int) (|A2_7| Int) (|H2_2| Int) (|I2_2| Int) (|J2_1| Int) (|E2_7| Int) (|F2_7| Bool) (|.loc.6| Bool) (|.loc.7| Bool) (|.loc.8| Bool) (|.loc.9| Bool) (|.loc.10| Bool) (|H2_13| Int) (|H2_15| Int) (|G2_0| (Array Int Int)) (|.x.1059| Int) (|.x.1057| (Array Int Int)) (|.x.1055| Int) (|.x.1053| (Array Int Int)) (|.x.1049| Int) (|.x.1051| (Array Int Int)) (|.x.1103| Int) (|.x.1104| Int) (|.x.1102| Int) (|.x.1064| Int) (|F2_18| Bool) (|.x.1050| (Array Int Int)) (|.x.1060| Int) (|.x.1077| Int) (|.x.1078| Int) (|.x.1083| Int) (|.x.1096| Int) (|.x.1105| Int) (|.x.1080| Int) (|.x.1076| Int) (|.x.1100| Int) (|.x.1065| Int) (|.loc.11| Bool) (|.loc.15| Bool) (|.loc.14| Bool) (|.x.1081| Int) (|.x.1087| Int) (|.x.1066| Int) (|.loc.12| Bool) (|.loc.13| Bool) (|.x.1082| Int) (|.x.1056| (Array Int Int)) (|.x.1054| Int) (|.x.1058| Int) (|.x.1070| Int) (|.x.1085| Int) (|.x.1090| Int) (|.x.1092| Int) (|.x.1094| Int) (|.x.1097| Int) (|.x.1101| Int) (|.x.1062| Int) (|.x.1052| (Array Int Int)) (|.x.1067| Int) (|.x.1079| Int) (|.x.1084| Int) (|.x.1088| Int) (|.x.1089| Int) (|.x.1095| Int) (|.x.1098| Int) (|.x.1099| Int) (|.x.1074| Int) (|.x.1071| Int) (|.x.1061| Int) (|.x.1063| Int) (|.x.1086| Int) (|.x.1093| Int) (|.x.1091| Int) (|.x.1075| Int) (|.x.1073| Int) (|.x.1072| Int) (|.x.1069| Int) (|.x.1068| Int) (|.xtv.1| Int) (|.xtv.2| Int) (|.xtv.3| (Array Int Int))) (=> (and (and (and .loc.9 (and (and .loc.7 (not .loc.6)) (not .loc.8))) (not .loc.10)) (and (and (and (and (and (= D_7 E_7) (not F2_7)) (= F_7 G_7)) (= J_7 K_7)) (= H_7 I_7)) (= B_7 C_7))) (state |A_7| |B_7| |C_7| |D_7| |E_7| |F_7| |G_7| |H_7| |I_7| |J_7| |K_7| |L_7| |M_7| |N_7| |O_7| |G2_3| |Q_7| |R_7| |S_7| |T_7| |U_7| |V_7| |W_7| |X_7| |Y_7| |Z_7| |A1_7| |B1_7| |C1_7| |D1_7| |E1_7| |F1_7| |G1_7| |H1_7| |I1_7| |J1_7| |K1_7| |L1_7| |M1_7| |N1_7| |O1_7| |P1_7| |Q1_7| |R1_7| |S1_7| |T1_7| |U1_7| |V1_7| |W1_7| |X1_7| |Y1_7| |Z1_7| |A2_7| |H2_2| |I2_2| |J2_1| |E2_7| |F2_7| |.loc.6| |.loc.7| |.loc.8| |.loc.9| |.loc.10| |H2_13| |H2_15| |G2_0|))))
(assert (forall ((|A_7| Int) (|B_7| (Array Int Int)) (|C_7| (Array Int Int)) (|D_7| (Array Int Int)) (|E_7| (Array Int Int)) (|F_7| Int) (|G_7| Int) (|H_7| (Array Int Int)) (|I_7| (Array Int Int)) (|J_7| Int) (|K_7| Int) (|L_7| Int) (|M_7| Int) (|N_7| Int) (|O_7| Int) (|G2_3| Int) (|Q_7| Int) (|R_7| Int) (|S_7| Int) (|T_7| Int) (|U_7| Int) (|V_7| Int) (|W_7| Int) (|X_7| Int) (|Y_7| Int) (|Z_7| Int) (|A1_7| Int) (|B1_7| Int) (|C1_7| Int) (|D1_7| Int) (|E1_7| Int) (|F1_7| Int) (|G1_7| Int) (|H1_7| Int) (|I1_7| Int) (|J1_7| Int) (|K1_7| Int) (|L1_7| Int) (|M1_7| Int) (|N1_7| Int) (|O1_7| Int) (|P1_7| Int) (|Q1_7| Int) (|R1_7| Int) (|S1_7| Int) (|T1_7| Int) (|U1_7| Int) (|V1_7| Int) (|W1_7| Int) (|X1_7| Int) (|Y1_7| Int) (|Z1_7| Int) (|A2_7| Int) (|H2_2| Int) (|I2_2| Int) (|J2_1| Int) (|E2_7| Int) (|F2_7| Bool) (|.loc.6| Bool) (|.loc.7| Bool) (|.loc.8| Bool) (|.loc.9| Bool) (|.loc.10| Bool) (|H2_13| Int) (|H2_15| Int) (|G2_0| (Array Int Int)) (|.x.1059| Int) (|.x.1057| (Array Int Int)) (|.x.1055| Int) (|.x.1053| (Array Int Int)) (|.x.1049| Int) (|.x.1051| (Array Int Int)) (|.x.1103| Int) (|.x.1104| Int) (|.x.1102| Int) (|.x.1064| Int) (|F2_18| Bool) (|.x.1050| (Array Int Int)) (|.x.1060| Int) (|.x.1077| Int) (|.x.1078| Int) (|.x.1083| Int) (|.x.1096| Int) (|.x.1105| Int) (|.x.1080| Int) (|.x.1076| Int) (|.x.1100| Int) (|.x.1065| Int) (|.loc.11| Bool) (|.loc.15| Bool) (|.loc.14| Bool) (|.x.1081| Int) (|.x.1087| Int) (|.x.1066| Int) (|.loc.12| Bool) (|.loc.13| Bool) (|.x.1082| Int) (|.x.1056| (Array Int Int)) (|.x.1054| Int) (|.x.1058| Int) (|.x.1070| Int) (|.x.1085| Int) (|.x.1090| Int) (|.x.1092| Int) (|.x.1094| Int) (|.x.1097| Int) (|.x.1101| Int) (|.x.1062| Int) (|.x.1052| (Array Int Int)) (|.x.1067| Int) (|.x.1079| Int) (|.x.1084| Int) (|.x.1088| Int) (|.x.1089| Int) (|.x.1095| Int) (|.x.1098| Int) (|.x.1099| Int) (|.x.1074| Int) (|.x.1071| Int) (|.x.1061| Int) (|.x.1063| Int) (|.x.1086| Int) (|.x.1093| Int) (|.x.1091| Int) (|.x.1075| Int) (|.x.1073| Int) (|.x.1072| Int) (|.x.1069| Int) (|.x.1068| Int) (|.xtv.1| Int) (|.xtv.2| Int) (|.xtv.3| (Array Int Int))) (=> (and (state |A_7| |B_7| |C_7| |D_7| |E_7| |F_7| |G_7| |H_7| |I_7| |J_7| |K_7| |L_7| |M_7| |N_7| |O_7| |G2_3| |Q_7| |R_7| |S_7| |T_7| |U_7| |V_7| |W_7| |X_7| |Y_7| |Z_7| |A1_7| |B1_7| |C1_7| |D1_7| |E1_7| |F1_7| |G1_7| |H1_7| |I1_7| |J1_7| |K1_7| |L1_7| |M1_7| |N1_7| |O1_7| |P1_7| |Q1_7| |R1_7| |S1_7| |T1_7| |U1_7| |V1_7| |W1_7| |X1_7| |Y1_7| |Z1_7| |A2_7| |H2_2| |I2_2| |J2_1| |E2_7| |F2_7| |.loc.6| |.loc.7| |.loc.8| |.loc.9| |.loc.10| |H2_13| |H2_15| |G2_0|) (let ((.def_76 (not .loc.6))) (let ((.def_78 (not .loc.8))) (let ((.def_81 (not .loc.10))) (let ((.def_115 (select D_7 L_7))) (let ((.def_117 (select .def_115 (+ (* 4 Z1_7) E2_7)))) (let ((.def_120 (<= K1_7 Z1_7))) (let ((.def_121 (not .def_120))) (let ((.def_132 (= .x.1102 .x.1064))) (let ((.def_137 (select .def_115 (+ (* 4 M1_7) E2_7)))) (let ((.def_140 (or F2_7 (and (and (and (and (= .def_117 .x.1103) .def_121) (= (ite (= .x.1103 .x.1104) 0 1) .x.1102)) .def_132) (= .x.1104 .def_137))))) (let ((.def_144 (= B_7 .x.1050))) (let ((.def_147 (= L_7 .x.1060))) (let ((.def_150 (= C1_7 .x.1077))) (let ((.def_153 (= D1_7 .x.1078))) (let ((.def_156 (= I1_7 .x.1083))) (let ((.def_159 (= V1_7 .x.1096))) (let ((.def_162 (= E2_7 .x.1105))) (let ((.def_164 (= .x.1064 0))) (let ((.def_165 (or F2_7 .def_164))) (let ((.def_177 (not .loc.9))) (let ((.def_180 (= F2_7 F2_18))) (let ((.def_182 (= J2_1 .x.1104))) (let ((.def_184 (= I2_2 .x.1103))) (let ((.def_186 (= H2_2 .x.1102))) (let ((.def_188 (= G2_3 .x.1064))) (let ((.def_193 (= F1_7 .x.1080))) (let ((.def_195 (= B1_7 .x.1076))) (let ((.def_221 (or F2_7 (and .def_132 (and (= .def_117 .x.1076) (and (= .def_137 .x.1080) (and .def_121 (= .x.1102 (ite (= .x.1080 .x.1076) 0 1))))))))) (let ((.def_225 (= Z1_7 .x.1100))) (let ((.def_227 (= Q_7 .x.1065))) (let ((.def_229 (not .loc.7))) (let ((.def_237 (not .loc.14))) (let ((.def_240 (and .def_144 .def_147))) (let ((.def_257 (not .loc.15))) (let ((.def_259 (not .loc.11))) (let ((.def_265 (or F2_18 (= (+ Z1_7 (* (- 1) .x.1100)) (- 1))))) (let ((.def_269 (= G1_7 .x.1081))) (let ((.def_271 (and .def_227 .def_240))) (let ((.def_298 (and .def_159 (and .def_156 (and .def_269 (and .def_193 (and .def_153 (and .def_150 (and .def_195 .def_271))))))))) (let ((.def_313 (<= K1_7 M1_7))) (let ((.def_318 (or F2_7 (and (not .def_313) (= (+ M1_7 (* (- 1) .x.1100)) (- 1)))))) (let ((.def_322 (= M1_7 .x.1087))) (let ((.def_324 (= R_7 .x.1066))) (let ((.def_327 (not .loc.12))) (let ((.def_349 (or F2_7 (= (+ M1_7 (* (- 1) .x.1087)) (- 1))))) (let ((.def_352 (and F2_7 .def_144))) (let ((.def_387 (and .def_156 (and .def_269 (and .def_193 (and .def_153 (and .def_150 (and .def_195 (and .def_271 .def_324))))))))) (let ((.def_389 (and .def_159 (and .def_322 .def_387)))) (let ((.def_406 (or F2_7 .def_313))) (let ((.def_427 (not .loc.13))) (let ((.def_429 (= H1_7 .x.1082))) (let ((.def_453 (= H_7 .x.1056))) (let ((.def_455 (= F_7 .x.1054))) (let ((.def_458 (= J_7 .x.1058))) (let ((.def_461 (= V_7 .x.1070))) (let ((.def_464 (= K1_7 .x.1085))) (let ((.def_467 (= P1_7 .x.1090))) (let ((.def_470 (= R1_7 .x.1092))) (let ((.def_473 (= T1_7 .x.1094))) (let ((.def_476 (= W1_7 .x.1097))) (let ((.def_479 (= A2_7 .x.1101))) (let ((.def_494 (= .x.1087 0))) (let ((.def_550 (and .def_162 (and .def_479 (and .def_225 (and .def_476 (and .def_159 (and .def_473 (and .def_470 (and .def_467 (and .def_322 (and .def_464 (and .def_156 (and .def_429 (and .def_269 (and .def_193 (and .def_153 (and .def_150 (and .def_195 (and .def_461 (and .def_324 (and .def_227 (and .def_147 (and .def_458 (and .def_453 (and .def_352 .def_455)))))))))))))))))))))))))) (let ((.def_572 (and .def_324 (and .def_227 (and .def_147 (and .def_458 (and .def_453 (and .def_144 .def_455)))))))) (let ((.def_573 (and .def_461 .def_572))) (let ((.def_580 (and .def_156 (and .def_429 (and .def_269 (and .def_193 (and .def_153 (and .def_150 (and .def_195 .def_573))))))))) (let ((.def_581 (and .def_464 .def_580))) (let ((.def_584 (and .def_470 (and .def_467 (and .def_322 .def_581))))) (let ((.def_590 (and .def_162 (and .def_479 (and .def_225 (and .def_476 (and .def_159 (and .def_473 .def_584)))))))) (let ((.def_606 (or F2_7 .def_120))) (let ((.def_646 (or F2_18 (not .def_164)))) (let ((.def_675 (and F2_7 F2_18))) (let ((.def_713 (and .loc.6 .def_550))) (let ((.def_729 (and .loc.6 .def_590))) (let ((.def_830 (<= 100000 P1_7))) (let ((.def_940 (= H2_13 0))) (let ((.def_971 (or F2_7 (and (and (<= H2_13 2147483647) (<= (- 2147483648) H2_13)) (= Z_7 H2_13))))) (let ((.def_975 (= N_7 .x.1062))) (let ((.def_977 (= D_7 .x.1052))) (let ((.def_980 (= S_7 .x.1067))) (let ((.def_983 (= E1_7 .x.1079))) (let ((.def_986 (= J1_7 .x.1084))) (let ((.def_989 (= N1_7 .x.1088))) (let ((.def_992 (= O1_7 .x.1089))) (let ((.def_995 (= U1_7 .x.1095))) (let ((.def_998 (= X1_7 .x.1098))) (let ((.def_1001 (= Y1_7 .x.1099))) (let ((.def_1077 (and .def_461 (and .def_980 (and .def_324 (and .def_227 (and .def_975 (and .def_147 (and .def_458 (and .def_453 (and .def_455 (and .def_352 .def_977)))))))))))) (let ((.def_1127 (and .def_461 (and .def_980 (and .def_324 (and .def_227 (and .def_975 (and .def_147 (and .def_458 (and .def_453 (and .def_455 (and .def_144 .def_977)))))))))))) (let ((.def_1142 (and .def_470 (and .def_467 (and .def_992 (and .def_989 (and .def_322 (and .def_464 (and .def_986 (and .def_156 (and .def_429 (and .def_269 (and .def_193 (and .def_983 (and .def_153 (and .def_150 (and .def_195 .def_1127))))))))))))))))) (let ((.def_1151 (and .def_162 (and .def_479 (and .def_225 (and .def_1001 (and .def_998 (and .def_476 (and .def_159 (and .def_995 (and .def_473 .def_1142))))))))))) (let ((.def_1153 (and .loc.7 (and .loc.6 .def_1151)))) (let ((.def_1170 (= Z_7 .x.1074))) (let ((.def_1192 (= W_7 .x.1071))) (let ((.def_1196 (= H2_13 .x.1061))) (let ((.def_1219 (<= X_7 O_7))) (let ((.def_1222 (or F2_7 (and (= H2_13 (select (select D_7 A1_7) (+ (* 4 O_7) U_7))) (not .def_1219))))) (and (and (= K_7 .x.1059) (and (= I_7 .x.1057) (and (= G_7 .x.1055) (and (= E_7 .x.1053) (and (= A_7 .x.1049) (= C_7 .x.1051)))))) (or (and (or (and (or (or (or (and (or (and (or (or (or (and (or (or (or (or (or (or (or (or (or (or (or (or (or (or (or (and (or (and (or (or (or (or (and (or (or (and (or (and (or (and (or (and .def_81 (and .loc.9 (and (and (and (and (and (and (and (and (and .def_140 F2_18) .def_144) .def_147) .def_150) .def_153) .def_156) .def_159) .def_162) .def_165))) (and (or F2_7 (and (= .x.1096 0) (= .x.1050 (store (store B_7 L_7 0) C1_7 0)))) (and (and (and (and (and (and (or F2_18 (= .x.1078 .x.1096)) (and .loc.10 .def_177)) .def_180) .def_182) .def_184) .def_186) .def_188))) (and .def_76 (and .def_193 .def_195))) (and (and .def_184 (and .def_182 (and .def_177 (and .def_81 (and .loc.6 (and .def_165 (and .def_162 (and .def_159 (and .def_156 (and .def_153 (and .def_150 (and .def_147 (and F2_18 .def_144))))))))))))) .def_221)) (and (and (and (and .def_78 (and (and .def_225 .def_227) .def_229)) .loc.11) .loc.15) .def_237)) (and (and (and (and .def_188 (and .def_186 (and .def_180 (and .def_177 (and .loc.14 (and .def_81 (and .loc.8 (and .loc.7 (and .loc.6 (and .def_162 (and .def_159 (and .def_156 (and .def_193 (and .def_153 (and .def_150 (and .def_195 .def_240)))))))))))))))) .def_257) .def_259) .def_265)) .def_269) (and .def_265 (and .def_257 (and .def_188 (and .def_186 (and .def_184 (and .def_182 (and .def_180 (and .def_177 (and .def_237 (and .loc.11 (and .def_81 (and .def_78 (and .def_229 (and .def_76 (and .def_162 (and .def_159 (and .def_156 (and .def_153 (and .def_150 .def_271)))))))))))))))))))) (and (and .def_259 (and .def_257 (and .def_188 (and .def_186 (and .def_184 (and .def_182 (and .def_180 (and .loc.14 (and .def_81 (and .def_78 (and .loc.9 (and .loc.7 (and .loc.6 (and .def_162 .def_298)))))))))))))) .def_318)) (and (and .def_322 .def_324) .def_327)) (and (and .def_257 (and .def_188 (and .def_186 (and .def_184 (and .def_182 (and .def_180 (and .loc.14 (and .loc.12 (and .loc.11 (and .def_81 (and .def_78 (and .def_229 (and .loc.9 (and .loc.6 (and .def_162 (and .def_225 .def_298)))))))))))))))) .def_349)) (and .def_259 (and .def_188 (and .def_186 (and .def_184 (and .def_182 (and .def_180 (and .def_237 (and .def_327 (and .loc.15 (and .def_81 (and .loc.9 (and .loc.8 (and .loc.7 (and .loc.6 (and .def_162 (and .def_225 (and .def_159 (and .def_322 (and .def_156 (and .def_269 (and .def_193 (and .def_153 (and .def_150 (and .def_195 (and .def_324 (and .def_227 (and .def_147 .def_352)))))))))))))))))))))))))))) (and (and .def_259 (and .def_188 (and .def_186 (and .def_184 (and .def_182 (and .def_180 (and .def_237 (and .def_327 (and .loc.15 (and .def_81 (and .loc.9 (and .loc.8 (and .loc.7 (and .loc.6 (and .def_162 (and .def_225 .def_389)))))))))))))))) .def_406)) (and .def_318 (and .def_257 (and .def_188 (and .def_186 (and .def_184 (and .def_182 (and .def_180 (and .def_237 (and .def_327 (and .loc.11 (and .def_81 (and .loc.9 (and .loc.8 (and .loc.7 (and .loc.6 (and .def_162 .def_389))))))))))))))))) (and .def_427 .def_429)) (and .def_349 (and .def_257 (and .def_188 (and .def_186 (and .def_184 (and .def_182 (and .def_180 (and .def_177 (and .loc.14 (and .loc.13 (and .loc.12 (and .loc.11 (and .def_81 (and .def_78 (and .def_76 (and .loc.7 (and .def_162 (and .def_225 (and .def_159 .def_387)))))))))))))))))))) (and (and (and (and (and (and (and (and (and .def_453 .def_455) .def_458) .def_461) .def_464) .def_467) .def_470) .def_473) .def_476) .def_479)) (and (or F2_7 (and (and (= .x.1058 0) (= .x.1054 0)) (= G2_0 (store B_7 0 0)))) (and (or F2_18 (and (and (and (and (and (and (and (not (<= .x.1049 .x.1060)) (not (= .x.1060 0))) .def_494) (= .x.1085 0)) (= .x.1105 0)) (= (select G2_0 .x.1060) 0)) (= .x.1050 (store G2_0 .x.1060 1))) (= .x.1056 (store H_7 .x.1060 400000)))) (and .def_257 (and .def_188 (and .def_186 (and .def_180 (and .def_427 (and .loc.14 (and .loc.12 (and .loc.11 (and .def_81 (and .def_78 (and .def_76 (and .loc.9 (and .loc.7 .def_153)))))))))))))))) (and .def_257 (and .def_188 (and .def_186 (and .def_184 (and .def_182 (and .def_180 (and .def_427 (and .def_327 (and .loc.14 (and .loc.11 (and .def_81 (and .def_78 (and .def_229 (and .def_76 (and .loc.9 .def_550)))))))))))))))) (and (and .def_257 (and .def_188 (and .def_186 (and .def_184 (and .def_182 (and .def_180 (and .def_427 (and .def_327 (and .loc.14 (and .loc.11 (and .def_81 (and .def_78 (and .def_229 (and .def_76 (and .loc.9 .def_590))))))))))))))) .def_606)) (and (and .def_257 (and .def_180 (and .def_237 (and .loc.13 (and .loc.12 (and .loc.11 (and .def_81 (and .def_78 (and .def_229 (and .def_76 (and .loc.9 (and .def_162 (and .def_479 (and .def_225 (and .def_476 (and .def_159 (and .def_473 (and .def_470 (and .def_467 (and .def_322 (and .def_464 (and .def_156 (and .def_429 (and .def_269 (and .def_193 (and .def_153 (and .def_150 (and .def_195 (and .def_461 (and .def_324 (and .def_227 (and .def_147 (and .def_458 (and .def_453 (and .def_455 (and .def_140 .def_144)))))))))))))))))))))))))))))))))))) .def_646)) (and (or F2_7 .def_494) (and .def_257 (and .def_188 (and .def_186 (and .def_184 (and .def_182 (and .def_180 (and .loc.14 (and .loc.13 (and .loc.12 (and .loc.11 (and .def_81 (and .def_76 (and .loc.9 (and .loc.8 (and .loc.7 (and .def_162 (and .def_479 (and .def_225 (and .def_476 (and .def_159 (and .def_473 (and .def_470 (and .def_467 .def_581))))))))))))))))))))))))) (and .def_257 (and .def_237 (and .loc.13 (and .loc.12 (and .loc.11 (and .def_81 (and .def_78 (and .def_229 (and .def_76 (and .loc.9 (and .def_162 (and .def_479 (and .def_225 (and .def_476 (and .def_159 (and .def_473 (and .def_470 (and .def_467 (and .def_322 (and .def_464 (and .def_156 (and .def_429 (and .def_269 (and .def_193 (and .def_153 (and .def_150 (and .def_195 (and .def_461 (and .def_324 (and .def_227 (and .def_147 (and .def_458 (and .def_453 (and .def_455 (and .def_144 (and .def_140 .def_675))))))))))))))))))))))))))))))))))))) (and .def_259 (and .def_257 (and .def_188 (and .def_186 (and .def_184 (and .def_182 (and .def_180 (and .def_177 (and .def_237 (and .def_427 (and .loc.12 (and .def_81 (and .def_78 (and .def_229 .def_713))))))))))))))) (and .def_606 (and .def_259 (and .def_257 (and .def_188 (and .def_186 (and .def_184 (and .def_182 (and .def_180 (and .def_177 (and .def_237 (and .def_427 (and .loc.12 (and .def_81 (and .def_78 (and .def_229 .def_729)))))))))))))))) (and .def_646 (and .def_259 (and .def_257 (and .def_221 (and .def_184 (and .def_182 (and .def_180 (and .def_177 (and .def_237 (and .def_427 (and .def_327 (and .def_81 (and .def_78 (and .def_229 (and .loc.6 (and .def_162 (and .def_479 (and .def_225 (and .def_476 (and .def_159 (and .def_473 (and .def_470 (and .def_467 (and .def_322 (and .def_464 (and .def_156 (and .def_429 (and .def_269 (and .def_153 (and .def_150 .def_573))))))))))))))))))))))))))))))) (and .def_259 (and .def_257 (and .def_221 (and .def_184 (and .def_182 (and .def_177 (and .def_237 (and .def_427 (and .def_327 (and .def_81 (and .def_78 (and .def_229 (and .loc.6 (and .def_162 (and .def_479 (and .def_225 (and .def_476 (and .def_159 (and .def_473 (and .def_470 (and .def_467 (and .def_322 (and .def_464 (and .def_156 (and .def_429 (and .def_269 (and .def_153 (and .def_150 (and .def_461 (and .def_324 (and .def_227 (and .def_147 (and .def_458 (and .def_453 (and .def_455 (and .def_144 .def_675))))))))))))))))))))))))))))))))))))) (and .def_259 (and .def_257 (and .def_188 (and .def_186 (and .def_184 (and .def_182 (and .def_180 (and .loc.14 (and .loc.13 (and .loc.12 (and .def_81 (and .def_229 (and .loc.9 (and .loc.8 .def_713))))))))))))))) (and (or F2_7 .def_830) (and .def_259 (and .def_257 (and .def_188 (and .def_186 (and .def_184 (and .def_182 (and .def_180 (and .loc.14 (and .loc.13 (and .loc.12 (and .def_81 (and .def_229 (and .loc.9 (and .loc.8 .def_729)))))))))))))))) (and (or F2_7 (= (+ P1_7 (* (- 1) .x.1090)) (- 1))) (and .def_257 (and .def_188 (and .def_186 (and .def_184 (and .def_182 (and .def_180 (and .def_177 (and .def_327 (and .loc.14 (and .loc.13 (and .loc.11 (and .def_81 (and .def_76 (and .loc.8 (and .loc.7 (and .def_162 (and .def_479 (and .def_225 (and .def_476 (and .def_159 (and .def_473 (and .def_470 (and .def_322 (and .def_464 (and .def_156 (and .def_429 (and .def_269 (and .def_193 (and .def_153 (and .def_150 (and .def_195 .def_572))))))))))))))))))))))))))))))))) (and (or F2_7 (and (= .x.1050 (store B_7 .x.1077 1)) (and (= .x.1056 (store H_7 .x.1077 400000)) (and (= (select B_7 .x.1077) 0) (and (not (= .x.1077 0)) (and (= .x.1083 0) (and (not (<= A_7 .x.1077)) (= .x.1090 0)))))))) (and .def_257 (and .def_188 (and .def_186 (and .def_184 (and .def_182 (and .def_180 (and .def_327 (and .loc.14 (and .loc.13 (and .loc.11 (and .def_81 (and .def_229 (and .def_76 (and .loc.9 (and .loc.8 (and .def_162 (and .def_479 (and .def_225 (and .def_476 (and .def_159 (and .def_473 (and .def_470 (and .def_322 (and .def_464 (and .def_429 (and .def_269 (and .def_193 (and .def_153 (and .def_195 (and .def_461 (and .def_324 (and .def_227 (and .def_147 (and .def_455 .def_458)))))))))))))))))))))))))))))))))))) (and (and (or F2_18 (not .def_940)) (and .def_259 (and .def_257 (and .def_188 (and .def_186 (and .def_184 (and .def_182 (and .def_180 (and .def_177 (and .def_237 (and .loc.13 (and .loc.12 (and .def_81 (and .def_229 (and .loc.8 (and .loc.6 (and .def_162 (and .def_225 (and .def_476 (and .def_159 .def_584)))))))))))))))))))) .def_971)) (and (and (and (and (and (and (and (and (and .def_975 .def_977) .def_980) .def_983) .def_986) .def_989) .def_992) .def_995) .def_998) .def_1001)) (and (or F2_18 (and (and .def_940 (and (and (and (and (and (and (= H2_15 (select (select D_7 .x.1077) (+ .x.1083 (* 4 .x.1090)))) (and (= (+ .x.1095 (* (- 1) .x.1099)) 1) (and (= .x.1089 .x.1098) (and (= .x.1062 .x.1067) (= .x.1084 .x.1099))))) (= .x.1060 .x.1089)) (= .x.1105 .x.1088)) (= K1_7 .x.1084)) (= .x.1079 .x.1088)) (= H2_15 .x.1062))) (= .x.1052 (store D_7 .x.1098 (store (select D_7 .x.1098) (+ .x.1079 (* 4 .x.1099)) .x.1067))))) (and (or F2_18 (and (= .x.1085 .x.1095) (and (<= .x.1085 2147483647) (<= (- 2147483648) .x.1085)))) (and .def_971 (and .def_259 (and .def_257 (and .def_188 (and .def_186 (and .def_184 (and .def_182 (and .def_180 (and .def_177 (and .def_237 (and .loc.13 (and .loc.12 (and .def_81 (and .def_229 (and .loc.8 (and .loc.6 (and .def_162 (and .def_225 (and .def_159 (and .def_467 (and .def_322 .def_580)))))))))))))))))))))))) (and .def_259 (and .def_257 (and .def_188 (and .def_186 (and .def_184 (and .def_182 (and .def_180 (and .def_327 (and .loc.14 (and .loc.13 (and .def_81 (and .def_78 (and .loc.9 (and .loc.7 (and .loc.6 (and .def_162 (and .def_479 (and .def_225 (and .def_1001 (and .def_998 (and .def_476 (and .def_159 (and .def_995 (and .def_473 (and .def_470 (and .def_467 (and .def_992 (and .def_989 (and .def_322 (and .def_464 (and .def_986 (and .def_156 (and .def_429 (and .def_269 (and .def_193 (and .def_983 (and .def_153 (and .def_150 (and .def_195 .def_1077)))))))))))))))))))))))))))))))))))))))) (and .def_406 (and .def_259 (and .def_257 (and .def_188 (and .def_186 (and .def_184 (and .def_182 (and .def_180 (and .def_327 (and .loc.14 (and .loc.13 (and .def_81 (and .def_78 (and .loc.9 .def_1153))))))))))))))) .def_1170) (and (or F2_7 (= .x.1074 0)) (and .def_257 (and .def_188 (and .def_186 (and .def_184 (and .def_182 (and .def_180 (and .def_177 (and .def_237 (and .def_327 (and .loc.13 (and .loc.11 (and .def_81 (and .def_229 (and .def_76 (and .loc.8 .def_1151))))))))))))))))) .def_1192) (and (and (or F2_18 (and (= .x.1074 1) .def_1196)) (and .def_257 (and .def_188 (and .def_186 (and .def_184 (and .def_182 (and .def_180 (and .def_177 (and .def_237 (and .def_327 (and .loc.13 (and .loc.11 (and .def_81 (and .def_78 .def_1153)))))))))))))) .def_1222)) (and .def_259 (and .def_257 (and .def_188 (and .def_186 (and .def_184 (and .def_182 (and .def_180 (and .def_177 (and .def_237 (and .def_327 (and .loc.13 (and .def_81 (and .def_78 (and .loc.7 (and .loc.6 (and .def_162 (and .def_479 (and .def_225 (and .def_1001 (and .def_998 (and .def_476 (and .def_159 (and .def_995 (and .def_473 (and .def_470 (and .def_467 (and .def_992 (and .def_989 (and .def_322 (and .def_464 (and .def_986 (and .def_156 (and .def_429 (and .def_269 (and .def_193 (and .def_983 (and .def_153 (and .def_150 (and .def_195 (and .def_1170 (and .def_1077 .def_1192)))))))))))))))))))))))))))))))))))))))))) (and (or F2_7 .def_1219) (and .def_259 (and .def_257 (and .def_188 (and .def_186 (and .def_184 (and .def_182 (and .def_180 (and .def_177 (and .def_237 (and .def_327 (and .loc.13 (and .def_81 (and .def_78 (and .loc.7 (and .loc.6 (and .def_162 (and .def_479 (and .def_225 (and .def_1001 (and .def_998 (and .def_476 (and .def_159 (and .def_995 (and .def_473 (and .def_470 (and .def_467 (and .def_992 (and .def_989 (and .def_322 (and .def_464 (and .def_986 (and .def_156 (and .def_429 (and .def_269 (and .def_193 (and .def_983 (and .def_153 (and .def_150 (and .def_195 (and .def_1170 (and .def_1127 .def_1192))))))))))))))))))))))))))))))))))))))))))) (and (= O_7 .x.1063) (= L1_7 .x.1086))) (and (or F2_18 (not .def_1196)) (and (or F2_18 (= (+ O_7 (* (- 1) .x.1063)) (- 1))) (and .def_1222 (and .def_257 (and .def_188 (and .def_186 (and .def_184 (and .def_182 (and .def_180 (and .def_177 (and .def_237 (and .def_427 (and .loc.12 (and .loc.11 (and .def_81 (and .def_78 (and .loc.7 (and .loc.6 (and .def_162 (and .def_479 (and .def_225 (and .def_1001 (and .def_998 (and .def_476 (and .def_159 (and .def_995 (and .def_473 (and .def_470 (and .def_467 (and .def_992 (and .def_989 (and .def_322 (and .def_464 (and .def_986 (and .def_156 (and .def_429 (and .def_269 (and .def_193 (and .def_983 (and .def_153 (and .def_150 (and .def_195 (and .def_1127 .def_1170)))))))))))))))))))))))))))))))))))))))))))) (and (= S1_7 .x.1093) (and (= Q1_7 .x.1091) (and (= A1_7 .x.1075) (and (= Y_7 .x.1073) (and (= X_7 .x.1072) (and (= U_7 .x.1069) (and (= M_7 .x.1061) (= T_7 .x.1068))))))))) (and (or F2_7 (and (= .x.1061 .x.1068) (and (= .x.1063 0) (and (= .x.1073 .x.1069) (and (= .x.1093 .x.1072) (and (= .x.1094 .x.1068) (and (= E2_7 .x.1073) (and (= .x.1091 .x.1075) (and (= L_7 .x.1091) (and (= K1_7 .x.1093) (and (= .x.1094 (select (select D_7 C1_7) (+ I1_7 (* 4 P1_7)))) (not .def_830)))))))))))) (and .def_257 (and .def_188 (and .def_186 (and .def_184 (and .def_182 (and .def_180 (and .def_237 (and .def_427 (and .loc.12 (and .loc.11 (and .def_81 (and .def_229 (and .loc.9 (and .loc.8 (and .loc.6 (and .def_162 (and .def_479 (and .def_225 (and .def_1001 (and .def_998 (and .def_476 (and .def_159 (and .def_995 .def_1142)))))))))))))))))))))))))))))))))))))))))))))))))))))))))))))))))))))))))))))))))))))))))))))))))))))))))))))))))))))))))))) (state |.x.1049| |.x.1050| |.x.1051| |.x.1052| |.x.1053| |.x.1054| |.x.1055| |.x.1056| |.x.1057| |.x.1058| |.x.1059| |.x.1060| |.x.1061| |.x.1062| |.x.1063| |.x.1064| |.x.1065| |.x.1066| |.x.1067| |.x.1068| |.x.1069| |.x.1070| |.x.1071| |.x.1072| |.x.1073| |.x.1074| |.x.1075| |.x.1076| |.x.1077| |.x.1078| |.x.1079| |.x.1080| |.x.1081| |.x.1082| |.x.1083| |.x.1084| |.x.1085| |.x.1086| |.x.1087| |.x.1088| |.x.1089| |.x.1090| |.x.1091| |.x.1092| |.x.1093| |.x.1094| |.x.1095| |.x.1096| |.x.1097| |.x.1098| |.x.1099| |.x.1100| |.x.1101| |.x.1102| |.x.1103| |.x.1104| |.x.1105| |F2_18| |.loc.11| |.loc.12| |.loc.13| |.loc.14| |.loc.15| |.xtv.1| |.xtv.2| |.xtv.3|))))
(assert (forall ((|A_7| Int) (|B_7| (Array Int Int)) (|C_7| (Array Int Int)) (|D_7| (Array Int Int)) (|E_7| (Array Int Int)) (|F_7| Int) (|G_7| Int) (|H_7| (Array Int Int)) (|I_7| (Array Int Int)) (|J_7| Int) (|K_7| Int) (|L_7| Int) (|M_7| Int) (|N_7| Int) (|O_7| Int) (|G2_3| Int) (|Q_7| Int) (|R_7| Int) (|S_7| Int) (|T_7| Int) (|U_7| Int) (|V_7| Int) (|W_7| Int) (|X_7| Int) (|Y_7| Int) (|Z_7| Int) (|A1_7| Int) (|B1_7| Int) (|C1_7| Int) (|D1_7| Int) (|E1_7| Int) (|F1_7| Int) (|G1_7| Int) (|H1_7| Int) (|I1_7| Int) (|J1_7| Int) (|K1_7| Int) (|L1_7| Int) (|M1_7| Int) (|N1_7| Int) (|O1_7| Int) (|P1_7| Int) (|Q1_7| Int) (|R1_7| Int) (|S1_7| Int) (|T1_7| Int) (|U1_7| Int) (|V1_7| Int) (|W1_7| Int) (|X1_7| Int) (|Y1_7| Int) (|Z1_7| Int) (|A2_7| Int) (|H2_2| Int) (|I2_2| Int) (|J2_1| Int) (|E2_7| Int) (|F2_7| Bool) (|.loc.6| Bool) (|.loc.7| Bool) (|.loc.8| Bool) (|.loc.9| Bool) (|.loc.10| Bool) (|H2_13| Int) (|H2_15| Int) (|G2_0| (Array Int Int)) (|.x.1059| Int) (|.x.1057| (Array Int Int)) (|.x.1055| Int) (|.x.1053| (Array Int Int)) (|.x.1049| Int) (|.x.1051| (Array Int Int)) (|.x.1103| Int) (|.x.1104| Int) (|.x.1102| Int) (|.x.1064| Int) (|F2_18| Bool) (|.x.1050| (Array Int Int)) (|.x.1060| Int) (|.x.1077| Int) (|.x.1078| Int) (|.x.1083| Int) (|.x.1096| Int) (|.x.1105| Int) (|.x.1080| Int) (|.x.1076| Int) (|.x.1100| Int) (|.x.1065| Int) (|.loc.11| Bool) (|.loc.15| Bool) (|.loc.14| Bool) (|.x.1081| Int) (|.x.1087| Int) (|.x.1066| Int) (|.loc.12| Bool) (|.loc.13| Bool) (|.x.1082| Int) (|.x.1056| (Array Int Int)) (|.x.1054| Int) (|.x.1058| Int) (|.x.1070| Int) (|.x.1085| Int) (|.x.1090| Int) (|.x.1092| Int) (|.x.1094| Int) (|.x.1097| Int) (|.x.1101| Int) (|.x.1062| Int) (|.x.1052| (Array Int Int)) (|.x.1067| Int) (|.x.1079| Int) (|.x.1084| Int) (|.x.1088| Int) (|.x.1089| Int) (|.x.1095| Int) (|.x.1098| Int) (|.x.1099| Int) (|.x.1074| Int) (|.x.1071| Int) (|.x.1061| Int) (|.x.1063| Int) (|.x.1086| Int) (|.x.1093| Int) (|.x.1091| Int) (|.x.1075| Int) (|.x.1073| Int) (|.x.1072| Int) (|.x.1069| Int) (|.x.1068| Int) (|.xtv.1| Int) (|.xtv.2| Int) (|.xtv.3| (Array Int Int))) (=> (state |A_7| |B_7| |C_7| |D_7| |E_7| |F_7| |G_7| |H_7| |I_7| |J_7| |K_7| |L_7| |M_7| |N_7| |O_7| |G2_3| |Q_7| |R_7| |S_7| |T_7| |U_7| |V_7| |W_7| |X_7| |Y_7| |Z_7| |A1_7| |B1_7| |C1_7| |D1_7| |E1_7| |F1_7| |G1_7| |H1_7| |I1_7| |J1_7| |K1_7| |L1_7| |M1_7| |N1_7| |O1_7| |P1_7| |Q1_7| |R1_7| |S1_7| |T1_7| |U1_7| |V1_7| |W1_7| |X1_7| |Y1_7| |Z1_7| |A2_7| |H2_2| |I2_2| |J2_1| |E2_7| |F2_7| |.loc.6| |.loc.7| |.loc.8| |.loc.9| |.loc.10| |H2_13| |H2_15| |G2_0|) (not (and F2_7 (and .loc.10 (and (not .loc.9) (and (not .loc.8) (and .loc.6 (not .loc.7))))))))))
(check-sat)
